Running HiGHS 1.10.0 (git hash: fd86653): Copyright (c) 2025 HiGHS under MIT licence terms
WARNING: Row name "‘MARKER’" in COLUMNS section is not defined: ignored
WARNING: Row name "←" in COLUMNS section is not defined: ignored
WARNING: Row name "←" in COLUMNS section is not defined: ignored
WARNING: COLUMNS section: ignored 4 undefined rows 0 duplicate cost values and 0 duplicate matrix values
WARNING: Variables 0 and 7 have the same name "MARKER"
LP   escala_enfermeiros has 6 rows; 8 cols; 6 nonzeros
Coefficient ranges:
  Matrix [1e+00, 1e+00]
  Cost   [1e+00, 2e+00]
  Bound  [0e+00, 0e+00]
  RHS    [5e+01, 6e+01]
Presolving model
0 rows, 0 cols, 0 nonzeros  0s
0 rows, 0 cols, 0 nonzeros  0s
Presolve : Reductions: rows 0(-6); columns 0(-8); elements 0(-6) - Reduced to empty
Solving the original LP from the solution after postsolve
Model name          : escala_enfermeiros
Model status        : Optimal
Objective value     :  1.1000000000e+02
Relative P-D gap    :  0.0000000000e+00
HiGHS run time      :          0.00
Status: HighsModelStatus.kOptimal
x = [0, 50, 60, 0, 0, 0, 0, 0]
